c File: data_files/evolved_graphs/g3686.col
c
c Auto generated graph
c
p edge 100 1472
e 1 4
e 1 5
e 1 6
e 1 9
e 1 11
e 1 14
e 1 15
e 1 21
e 1 30
e 1 41
e 1 50
e 1 71
e 1 72
e 1 79
e 1 81
e 1 83
e 1 91
e 1 92
e 2 3
e 2 4
e 2 6
e 2 9
e 2 20
e 2 21
e 2 22
e 2 23
e 2 30
e 2 37
e 2 39
e 2 54
e 2 68
e 2 73
e 2 74
e 2 76
e 2 77
e 2 85
e 2 88
e 2 93
e 2 95
e 3 4
e 3 6
e 3 7
e 3 12
e 3 17
e 3 31
e 3 39
e 3 41
e 3 43
e 3 63
e 3 70
e 3 73
e 3 77
e 3 86
e 3 92
e 3 94
e 3 95
e 3 97
e 3 99
e 4 5
e 4 8
e 4 12
e 4 16
e 4 19
e 4 21
e 4 22
e 4 27
e 4 57
e 4 64
e 4 66
e 4 68
e 4 69
e 4 75
e 4 81
e 4 86
e 4 94
e 4 99
e 5 6
e 5 8
e 5 10
e 5 16
e 5 23
e 5 36
e 5 38
e 5 49
e 5 53
e 5 61
e 5 65
e 5 66
e 5 67
e 5 68
e 5 72
e 5 75
e 5 81
e 5 82
e 5 87
e 5 90
e 5 96
e 6 12
e 6 22
e 6 24
e 6 29
e 6 36
e 6 38
e 6 44
e 6 52
e 6 56
e 6 57
e 6 81
e 6 83
e 6 85
e 6 88
e 6 93
e 6 95
e 6 96
e 6 99
e 7 20
e 7 21
e 7 32
e 7 42
e 7 57
e 7 68
e 7 69
e 7 81
e 7 89
e 8 14
e 8 16
e 8 32
e 8 42
e 8 51
e 8 58
e 8 61
e 8 65
e 8 66
e 8 80
e 8 83
e 8 84
e 8 85
e 8 87
e 8 90
e 8 91
e 8 92
e 8 95
e 8 96
e 9 10
e 9 17
e 9 19
e 9 23
e 9 25
e 9 27
e 9 29
e 9 33
e 9 40
e 9 41
e 9 42
e 9 44
e 9 46
e 9 47
e 9 49
e 9 51
e 9 54
e 9 55
e 9 56
e 9 59
e 9 64
e 9 70
e 9 82
e 9 84
e 9 86
e 9 90
e 9 92
e 9 96
e 10 11
e 10 14
e 10 16
e 10 18
e 10 21
e 10 23
e 10 26
e 10 27
e 10 31
e 10 32
e 10 35
e 10 37
e 10 46
e 10 48
e 10 49
e 10 54
e 10 58
e 10 60
e 10 64
e 10 66
e 10 68
e 10 71
e 10 73
e 10 79
e 10 85
e 10 89
e 10 92
e 10 97
e 10 99
e 11 12
e 11 13
e 11 14
e 11 17
e 11 19
e 11 20
e 11 22
e 11 24
e 11 25
e 11 26
e 11 29
e 11 31
e 11 32
e 11 33
e 11 38
e 11 40
e 11 41
e 11 43
e 11 45
e 11 46
e 11 47
e 11 49
e 11 51
e 11 52
e 11 53
e 11 54
e 11 59
e 11 72
e 11 84
e 11 88
e 11 89
e 11 90
e 11 91
e 11 97
e 11 98
e 11 99
e 12 16
e 12 18
e 12 20
e 12 21
e 12 22
e 12 24
e 12 25
e 12 27
e 12 28
e 12 29
e 12 30
e 12 31
e 12 34
e 12 35
e 12 36
e 12 44
e 12 47
e 12 48
e 12 49
e 12 53
e 12 56
e 12 58
e 12 60
e 12 69
e 12 70
e 12 72
e 12 73
e 12 78
e 12 80
e 12 87
e 12 97
e 13 14
e 13 17
e 13 18
e 13 21
e 13 25
e 13 26
e 13 27
e 13 30
e 13 31
e 13 32
e 13 36
e 13 42
e 13 48
e 13 50
e 13 51
e 13 54
e 13 57
e 13 60
e 13 63
e 13 68
e 13 70
e 13 71
e 13 72
e 13 74
e 13 75
e 13 85
e 13 90
e 13 92
e 13 96
e 13 97
e 14 16
e 14 18
e 14 21
e 14 23
e 14 26
e 14 31
e 14 33
e 14 35
e 14 36
e 14 37
e 14 40
e 14 44
e 14 46
e 14 47
e 14 48
e 14 49
e 14 50
e 14 54
e 14 59
e 14 62
e 14 63
e 14 64
e 14 65
e 14 68
e 14 72
e 14 75
e 14 78
e 14 79
e 14 90
e 14 94
e 14 97
e 14 98
e 14 99
e 14 100
e 15 17
e 15 22
e 15 23
e 15 25
e 15 37
e 15 41
e 15 43
e 15 50
e 15 51
e 15 52
e 15 54
e 15 56
e 15 57
e 15 59
e 15 68
e 15 70
e 15 73
e 15 75
e 15 80
e 15 84
e 15 88
e 15 100
e 16 20
e 16 22
e 16 30
e 16 31
e 16 43
e 16 45
e 16 47
e 16 48
e 16 51
e 16 53
e 16 55
e 16 67
e 16 71
e 16 73
e 16 84
e 16 94
e 16 95
e 17 21
e 17 27
e 17 29
e 17 32
e 17 33
e 17 38
e 17 39
e 17 40
e 17 45
e 17 47
e 17 49
e 17 50
e 17 52
e 17 57
e 17 58
e 17 59
e 17 60
e 17 62
e 17 67
e 17 78
e 17 79
e 17 82
e 17 85
e 17 87
e 17 89
e 17 90
e 17 92
e 17 93
e 17 96
e 18 20
e 18 23
e 18 26
e 18 27
e 18 30
e 18 31
e 18 36
e 18 37
e 18 42
e 18 44
e 18 46
e 18 47
e 18 55
e 18 59
e 18 63
e 18 68
e 18 81
e 18 94
e 18 97
e 19 21
e 19 22
e 19 23
e 19 24
e 19 32
e 19 34
e 19 38
e 19 41
e 19 42
e 19 47
e 19 49
e 19 50
e 19 57
e 19 58
e 19 59
e 19 69
e 19 79
e 19 84
e 19 86
e 19 89
e 19 93
e 19 94
e 19 95
e 19 96
e 20 23
e 20 28
e 20 31
e 20 32
e 20 33
e 20 36
e 20 38
e 20 41
e 20 45
e 20 46
e 20 49
e 20 53
e 20 54
e 20 57
e 20 64
e 20 69
e 20 71
e 20 73
e 20 82
e 20 83
e 20 86
e 20 90
e 20 100
e 21 22
e 21 23
e 21 25
e 21 32
e 21 33
e 21 34
e 21 35
e 21 38
e 21 44
e 21 45
e 21 46
e 21 47
e 21 50
e 21 51
e 21 52
e 21 57
e 21 60
e 21 61
e 21 63
e 21 66
e 21 67
e 21 69
e 21 70
e 21 75
e 21 81
e 21 85
e 21 87
e 21 99
e 22 23
e 22 24
e 22 25
e 22 27
e 22 32
e 22 34
e 22 35
e 22 36
e 22 37
e 22 38
e 22 39
e 22 40
e 22 41
e 22 43
e 22 45
e 22 46
e 22 48
e 22 51
e 22 57
e 22 58
e 22 59
e 22 60
e 22 61
e 22 70
e 22 72
e 22 73
e 22 78
e 22 81
e 22 85
e 22 90
e 22 95
e 22 97
e 23 24
e 23 25
e 23 31
e 23 32
e 23 34
e 23 36
e 23 39
e 23 43
e 23 53
e 23 55
e 23 56
e 23 59
e 23 64
e 23 69
e 23 84
e 23 85
e 23 91
e 23 92
e 23 95
e 23 99
e 24 27
e 24 30
e 24 32
e 24 36
e 24 38
e 24 41
e 24 47
e 24 49
e 24 52
e 24 53
e 24 54
e 24 57
e 24 59
e 24 63
e 24 67
e 24 71
e 24 76
e 24 78
e 24 80
e 24 83
e 24 87
e 24 91
e 24 96
e 25 28
e 25 29
e 25 34
e 25 36
e 25 37
e 25 38
e 25 40
e 25 41
e 25 44
e 25 45
e 25 47
e 25 50
e 25 53
e 25 57
e 25 59
e 25 66
e 25 69
e 26 27
e 26 28
e 26 29
e 26 32
e 26 33
e 26 37
e 26 39
e 26 41
e 26 44
e 26 47
e 26 53
e 26 55
e 26 58
e 26 63
e 26 68
e 26 70
e 26 71
e 27 28
e 27 29
e 27 31
e 27 34
e 27 37
e 27 38
e 27 39
e 27 43
e 27 46
e 27 47
e 27 50
e 27 51
e 27 53
e 27 56
e 27 60
e 27 65
e 27 67
e 27 73
e 27 77
e 27 81
e 27 91
e 27 94
e 27 98
e 28 34
e 28 37
e 28 40
e 28 43
e 28 47
e 28 49
e 28 51
e 28 55
e 28 60
e 28 72
e 28 73
e 28 75
e 28 77
e 28 78
e 28 85
e 28 86
e 28 88
e 28 91
e 28 94
e 28 99
e 28 100
e 29 30
e 29 35
e 29 36
e 29 38
e 29 40
e 29 45
e 29 50
e 29 51
e 29 55
e 29 56
e 29 58
e 29 60
e 29 65
e 29 69
e 29 70
e 29 78
e 29 80
e 29 81
e 29 83
e 29 86
e 29 93
e 29 94
e 30 33
e 30 34
e 30 36
e 30 37
e 30 38
e 30 40
e 30 41
e 30 45
e 30 48
e 30 52
e 30 53
e 30 59
e 30 64
e 30 65
e 30 77
e 30 79
e 30 87
e 30 91
e 30 92
e 30 93
e 30 94
e 30 96
e 31 32
e 31 35
e 31 42
e 31 46
e 31 47
e 31 49
e 31 50
e 31 53
e 31 54
e 31 57
e 31 59
e 31 62
e 31 64
e 31 68
e 31 69
e 31 75
e 31 77
e 31 82
e 31 84
e 31 86
e 31 87
e 31 90
e 31 93
e 31 99
e 32 33
e 32 34
e 32 35
e 32 38
e 32 42
e 32 44
e 32 45
e 32 48
e 32 51
e 32 53
e 32 58
e 32 59
e 32 62
e 32 63
e 32 64
e 32 80
e 32 82
e 32 88
e 32 89
e 32 94
e 32 95
e 32 98
e 32 100
e 33 34
e 33 35
e 33 36
e 33 37
e 33 40
e 33 42
e 33 50
e 33 52
e 33 53
e 33 54
e 33 55
e 33 56
e 33 67
e 33 68
e 33 74
e 33 80
e 33 86
e 33 94
e 33 95
e 34 36
e 34 40
e 34 41
e 34 43
e 34 44
e 34 47
e 34 54
e 34 56
e 34 57
e 34 58
e 34 59
e 34 60
e 34 66
e 34 68
e 34 73
e 34 82
e 34 90
e 34 92
e 34 93
e 34 99
e 35 43
e 35 44
e 35 45
e 35 50
e 35 52
e 35 54
e 35 55
e 35 57
e 35 65
e 35 68
e 35 73
e 35 74
e 35 79
e 35 86
e 35 100
e 36 39
e 36 40
e 36 43
e 36 44
e 36 49
e 36 50
e 36 51
e 36 53
e 36 56
e 36 61
e 36 71
e 36 72
e 36 82
e 36 83
e 36 90
e 36 91
e 36 92
e 37 40
e 37 50
e 37 53
e 37 55
e 37 57
e 37 58
e 37 66
e 37 68
e 37 73
e 37 74
e 37 78
e 37 85
e 37 86
e 37 87
e 37 88
e 37 91
e 37 97
e 38 39
e 38 41
e 38 42
e 38 44
e 38 47
e 38 48
e 38 50
e 38 51
e 38 52
e 38 53
e 38 55
e 38 57
e 38 60
e 38 70
e 38 71
e 38 85
e 38 92
e 38 96
e 38 97
e 38 99
e 38 100
e 39 40
e 39 41
e 39 46
e 39 48
e 39 49
e 39 52
e 39 53
e 39 54
e 39 55
e 39 58
e 39 66
e 39 71
e 39 73
e 39 92
e 39 94
e 39 96
e 39 97
e 39 99
e 39 100
e 40 47
e 40 48
e 40 57
e 40 59
e 40 68
e 40 72
e 40 77
e 40 78
e 40 81
e 40 83
e 40 84
e 40 91
e 40 92
e 40 96
e 41 42
e 41 43
e 41 46
e 41 52
e 41 54
e 41 58
e 41 59
e 41 61
e 41 70
e 41 71
e 41 74
e 41 83
e 41 88
e 41 97
e 41 99
e 42 43
e 42 44
e 42 47
e 42 50
e 42 55
e 42 56
e 42 58
e 42 61
e 42 64
e 42 70
e 42 77
e 42 93
e 43 45
e 43 46
e 43 47
e 43 48
e 43 53
e 43 54
e 43 55
e 43 59
e 43 69
e 43 71
e 43 72
e 43 73
e 43 77
e 43 84
e 43 89
e 43 98
e 44 46
e 44 47
e 44 48
e 44 50
e 44 51
e 44 52
e 44 55
e 44 57
e 44 59
e 44 62
e 44 64
e 44 70
e 44 73
e 44 74
e 44 79
e 44 82
e 44 87
e 44 93
e 44 95
e 44 96
e 45 49
e 45 50
e 45 64
e 45 66
e 45 67
e 45 72
e 45 75
e 45 76
e 45 77
e 45 82
e 45 89
e 45 92
e 45 95
e 45 97
e 45 98
e 46 47
e 46 48
e 46 49
e 46 55
e 46 58
e 46 59
e 46 60
e 46 66
e 46 67
e 46 74
e 46 75
e 46 77
e 46 79
e 46 82
e 46 88
e 46 90
e 46 91
e 46 98
e 47 50
e 47 51
e 47 53
e 47 54
e 47 55
e 47 59
e 47 60
e 47 61
e 47 62
e 47 66
e 47 72
e 47 74
e 47 75
e 47 77
e 47 79
e 47 80
e 47 82
e 47 85
e 47 89
e 47 91
e 47 92
e 47 94
e 48 49
e 48 52
e 48 54
e 48 56
e 48 57
e 48 71
e 48 74
e 48 75
e 48 79
e 48 86
e 48 88
e 48 89
e 48 92
e 48 98
e 49 50
e 49 52
e 49 56
e 49 57
e 49 58
e 49 68
e 49 70
e 49 73
e 49 76
e 49 77
e 49 81
e 49 83
e 49 84
e 49 94
e 49 98
e 50 53
e 50 56
e 50 58
e 50 59
e 50 62
e 50 67
e 50 70
e 50 75
e 50 81
e 50 82
e 50 86
e 50 88
e 50 90
e 50 93
e 50 95
e 50 96
e 51 55
e 51 56
e 51 58
e 51 62
e 51 65
e 51 66
e 51 67
e 51 78
e 51 86
e 51 87
e 51 95
e 51 97
e 51 99
e 52 54
e 52 55
e 52 56
e 52 57
e 52 61
e 52 62
e 52 64
e 52 71
e 52 73
e 52 74
e 52 81
e 52 82
e 52 90
e 52 93
e 52 95
e 53 56
e 53 59
e 53 61
e 53 64
e 53 67
e 53 72
e 53 73
e 53 81
e 53 92
e 53 97
e 53 98
e 53 99
e 54 57
e 54 62
e 54 63
e 54 64
e 54 77
e 54 91
e 54 95
e 54 100
e 55 58
e 55 66
e 55 69
e 55 70
e 55 82
e 55 86
e 55 91
e 55 94
e 55 98
e 55 99
e 56 58
e 56 65
e 56 68
e 56 69
e 56 72
e 56 73
e 56 81
e 56 83
e 56 90
e 56 91
e 56 93
e 57 58
e 57 59
e 57 61
e 57 71
e 57 73
e 57 86
e 57 88
e 57 93
e 57 99
e 58 61
e 58 63
e 58 72
e 58 75
e 58 78
e 58 81
e 58 85
e 58 90
e 58 91
e 58 95
e 58 98
e 59 60
e 59 61
e 59 64
e 59 65
e 59 67
e 59 71
e 59 76
e 59 78
e 59 79
e 59 87
e 59 88
e 59 94
e 59 99
e 60 66
e 60 69
e 60 73
e 60 74
e 60 75
e 60 76
e 60 77
e 60 81
e 60 82
e 60 83
e 60 87
e 60 88
e 60 89
e 60 90
e 60 94
e 60 97
e 60 100
e 61 67
e 61 68
e 61 69
e 61 73
e 61 74
e 61 87
e 61 88
e 61 89
e 61 95
e 62 64
e 62 65
e 62 68
e 62 69
e 62 70
e 62 71
e 62 74
e 62 76
e 62 78
e 62 79
e 62 80
e 62 81
e 62 85
e 62 87
e 62 88
e 62 90
e 62 92
e 62 93
e 62 97
e 62 98
e 62 99
e 62 100
e 63 64
e 63 65
e 63 67
e 63 68
e 63 69
e 63 70
e 63 74
e 63 75
e 63 76
e 63 77
e 63 82
e 63 83
e 63 85
e 63 86
e 63 87
e 63 89
e 63 92
e 63 97
e 64 65
e 64 66
e 64 67
e 64 69
e 64 71
e 64 79
e 64 83
e 64 85
e 64 86
e 64 89
e 64 90
e 64 92
e 64 93
e 64 95
e 64 98
e 64 99
e 65 70
e 65 77
e 65 78
e 65 81
e 65 82
e 65 85
e 65 87
e 65 88
e 65 92
e 65 94
e 65 97
e 66 67
e 66 68
e 66 70
e 66 71
e 66 72
e 66 73
e 66 77
e 66 78
e 66 84
e 66 87
e 66 92
e 66 93
e 66 96
e 66 98
e 67 68
e 67 70
e 67 71
e 67 72
e 67 74
e 67 75
e 67 76
e 67 83
e 67 85
e 67 86
e 67 91
e 67 92
e 67 93
e 67 94
e 68 69
e 68 76
e 68 80
e 68 86
e 68 87
e 68 88
e 68 90
e 68 94
e 68 96
e 68 97
e 68 99
e 69 70
e 69 72
e 69 74
e 69 82
e 69 84
e 69 87
e 69 89
e 69 92
e 69 94
e 69 95
e 69 98
e 70 73
e 70 80
e 70 81
e 70 82
e 70 85
e 70 86
e 70 88
e 70 92
e 70 93
e 70 95
e 70 97
e 70 98
e 70 100
e 71 76
e 71 81
e 71 85
e 71 89
e 71 90
e 71 97
e 71 99
e 72 73
e 72 74
e 72 75
e 72 77
e 72 81
e 72 82
e 72 84
e 72 85
e 72 87
e 72 89
e 72 91
e 72 94
e 72 96
e 72 97
e 72 98
e 72 100
e 73 74
e 73 77
e 73 80
e 73 81
e 73 82
e 73 87
e 73 88
e 73 90
e 73 91
e 73 92
e 73 95
e 73 96
e 73 100
e 74 78
e 74 79
e 74 81
e 74 84
e 74 87
e 74 88
e 74 89
e 74 90
e 74 98
e 74 100
e 75 77
e 75 79
e 75 84
e 75 87
e 75 89
e 75 90
e 75 95
e 75 96
e 75 100
e 76 81
e 76 84
e 76 89
e 76 90
e 76 93
e 76 96
e 76 97
e 77 80
e 77 81
e 77 88
e 77 89
e 77 92
e 77 93
e 77 97
e 77 100
e 78 79
e 78 81
e 78 83
e 78 84
e 78 86
e 78 87
e 78 90
e 78 92
e 78 93
e 78 94
e 78 97
e 78 98
e 78 100
e 79 82
e 79 84
e 79 91
e 79 92
e 79 94
e 79 95
e 79 99
e 80 82
e 80 83
e 80 84
e 80 86
e 80 87
e 80 93
e 80 98
e 80 99
e 81 84
e 81 86
e 81 88
e 81 89
e 81 92
e 81 93
e 81 94
e 81 97
e 82 86
e 82 89
e 82 95
e 82 98
e 82 99
e 83 86
e 83 87
e 83 88
e 83 89
e 83 92
e 83 97
e 84 86
e 84 89
e 84 90
e 84 95
e 84 97
e 84 99
e 85 89
e 85 92
e 85 96
e 86 87
e 86 88
e 86 89
e 86 93
e 86 96
e 86 97
e 86 100
e 87 89
e 87 90
e 87 93
e 87 94
e 87 96
e 87 97
e 87 100
e 88 91
e 88 92
e 88 97
e 88 100
e 89 92
e 89 93
e 89 94
e 89 96
e 89 97
e 89 99
e 90 92
e 90 99
e 90 100
e 91 99
e 91 100
e 92 94
e 92 97
e 92 98
e 93 95
e 93 97
e 93 98
e 93 100
e 94 95
e 94 97
e 94 98
e 95 98
e 95 99
e 95 100
e 96 98
e 96 99
e 97 100
e 98 100
